(set-info :source |printed by MathSAT|)
(declare-fun |.x{1266}| () Int)
(declare-fun |.x{2153}| () Int)
(declare-fun |.x{1298}| () (Array Int Int))
(declare-fun |.x{2154}| () (Array Int Int))
(declare-fun |.x{1268}| () (Array Int Int))
(declare-fun |.x{2155}| () (Array Int Int))
(declare-fun |.x{1269}| () (Array Int (Array Int Int)))
(declare-fun |.x{2156}| () (Array Int (Array Int Int)))
(declare-fun |.x{1270}| () (Array Int (Array Int Int)))
(declare-fun |.x{2157}| () (Array Int (Array Int Int)))
(declare-fun |.x{1271}| () Int)
(declare-fun |.x{2158}| () Int)
(declare-fun |.x{1272}| () Int)
(declare-fun |.x{2159}| () Int)
(declare-fun |.x{1273}| () (Array Int Int))
(declare-fun |.x{2160}| () (Array Int Int))
(declare-fun |.x{1274}| () (Array Int Int))
(declare-fun |.x{2161}| () (Array Int Int))
(declare-fun |.x{1275}| () Int)
(declare-fun |.x{2162}| () Int)
(declare-fun |.x{1276}| () Int)
(declare-fun |.x{2163}| () Int)
(declare-fun |.x{1308}| () Int)
(declare-fun |.x{2164}| () Int)
(declare-fun |.x{1278}| () Int)
(declare-fun |.x{2165}| () Int)
(declare-fun |.x{1279}| () Int)
(declare-fun |.x{2166}| () Int)
(declare-fun |.x{1280}| () Int)
(declare-fun |.x{2167}| () Int)
(declare-fun |.x{1281}| () Int)
(declare-fun |.x{2168}| () Int)
(declare-fun |.x{1282}| () Int)
(declare-fun |.x{2169}| () Int)
(declare-fun |.x{1283}| () Int)
(declare-fun |.x{2170}| () Int)
(declare-fun |.x{1284}| () Int)
(declare-fun |.x{2171}| () Int)
(declare-fun |.x{1285}| () Int)
(declare-fun |.x{2172}| () Int)
(declare-fun |.x{1317}| () Int)
(declare-fun |.x{2173}| () Int)
(declare-fun |.x{1287}| () Int)
(declare-fun |.x{2174}| () Int)
(declare-fun |.x{1319}| () Int)
(declare-fun |.x{2175}| () Int)
(declare-fun |.x{1289}| () Int)
(declare-fun |.x{2176}| () Int)
(declare-fun |.x{1290}| () Int)
(declare-fun |.x{2177}| () Int)
(declare-fun |.x{1291}| () Int)
(declare-fun |.x{2178}| () Int)
(declare-fun |.x{1292}| () Int)
(declare-fun |.x{2179}| () Int)
(declare-fun |.x{1293}| () Int)
(declare-fun |.x{2180}| () Int)
(declare-fun |.x{1294}| () Int)
(declare-fun |.x{2181}| () Int)
(declare-fun |.x{1295}| () Int)
(declare-fun |.x{2182}| () Int)
(declare-fun |.x{1296}| () Bool)
(declare-fun |.x{2183}| () Bool)
(declare-fun |.loc{5}| () Bool)
(declare-fun |.loc{9}| () Bool)
(declare-fun |.loc{6}| () Bool)
(declare-fun |.loc{10}| () Bool)
(declare-fun |.loc{7}| () Bool)
(declare-fun |.loc{11}| () Bool)
(declare-fun |.loc{8}| () Bool)
(declare-fun |.loc{12}| () Bool)
(declare-fun |.x{1145}| () Int)
(declare-fun |.x{1146}| () Int)
(declare-fun |.x{123}| () (Array Int Int))
(define-fun .def_70 () Bool (! |.loc{5}| :next |.loc{9}|))
(define-fun .def_249 () Bool (not .def_70))
(define-fun .def_72 () Bool (! |.loc{6}| :next |.loc{10}|))
(define-fun .def_232 () Bool (not .def_72))
(define-fun .def_694 () Bool (and .def_232 .def_249))
(define-fun .def_74 () Bool (! |.loc{7}| :next |.loc{11}|))
(define-fun .def_695 () Bool (and .def_74 .def_694))
(define-fun .def_76 () Bool (! |.loc{8}| :next |.loc{12}|))
(define-fun .def_137 () Bool (not .def_76))
(define-fun .def_696 () Bool (and .def_137 .def_695))
(define-fun .def_68 () Bool (! |.x{1296}| :next |.x{2183}|))
(define-fun .def_688 () Bool (not .def_68))
(define-fun .def_16 () (Array Int (Array Int Int)) (! |.x{1270}| :next |.x{2157}|))
(define-fun .def_14 () (Array Int (Array Int Int)) (! |.x{1269}| :next |.x{2156}|))
(define-fun .def_687 () Bool (= .def_14 .def_16))
(define-fun .def_689 () Bool (and .def_687 .def_688))
(define-fun .def_28 () Int (! |.x{1276}| :next |.x{2163}|))
(define-fun .def_26 () Int (! |.x{1275}| :next |.x{2162}|))
(define-fun .def_686 () Bool (= .def_26 .def_28))
(define-fun .def_690 () Bool (and .def_686 .def_689))
(define-fun .def_20 () Int (! |.x{1272}| :next |.x{2159}|))
(define-fun .def_18 () Int (! |.x{1271}| :next |.x{2158}|))
(define-fun .def_685 () Bool (= .def_18 .def_20))
(define-fun .def_691 () Bool (and .def_685 .def_690))
(define-fun .def_24 () (Array Int Int) (! |.x{1274}| :next |.x{2161}|))
(define-fun .def_22 () (Array Int Int) (! |.x{1273}| :next |.x{2160}|))
(define-fun .def_684 () Bool (= .def_22 .def_24))
(define-fun .def_692 () Bool (and .def_684 .def_691))
(define-fun .def_12 () (Array Int Int) (! |.x{1268}| :next |.x{2155}|))
(define-fun .def_10 () (Array Int Int) (! |.x{1298}| :next |.x{2154}|))
(define-fun .def_683 () Bool (= .def_10 .def_12))
(define-fun .def_693 () Bool (and .def_683 .def_692))
(define-fun .def_697 () Bool (! (and .def_693 .def_696) :init true))
(define-fun .def_680 () Bool (= .def_28 |.x{2163}|))
(define-fun .def_678 () Bool (= .def_24 |.x{2161}|))
(define-fun .def_676 () Bool (= .def_20 |.x{2159}|))
(define-fun .def_674 () Bool (= .def_16 |.x{2157}|))
(define-fun .def_8 () Int (! |.x{1266}| :next |.x{2153}|))
(define-fun .def_672 () Bool (= .def_8 |.x{2153}|))
(define-fun .def_671 () Bool (= .def_12 |.x{2155}|))
(define-fun .def_673 () Bool (and .def_671 .def_672))
(define-fun .def_675 () Bool (and .def_673 .def_674))
(define-fun .def_677 () Bool (and .def_675 .def_676))
(define-fun .def_679 () Bool (and .def_677 .def_678))
(define-fun .def_681 () Bool (and .def_679 .def_680))
(define-fun .def_58 () Int (! |.x{1291}| :next |.x{2178}|))
(define-fun .def_208 () Bool (= .def_58 |.x{2178}|))
(define-fun .def_54 () Int (! |.x{1289}| :next |.x{2176}|))
(define-fun .def_78 () Bool (= .def_54 |.x{2176}|))
(define-fun .def_657 () Bool (and .def_78 .def_208))
(define-fun .def_60 () Int (! |.x{1292}| :next |.x{2179}|))
(define-fun .def_210 () Bool (= .def_60 |.x{2179}|))
(define-fun .def_658 () Bool (and .def_210 .def_657))
(define-fun .def_621 () Bool (= |.x{2175}| 0))
(define-fun .def_48 () Int (! |.x{1317}| :next |.x{2173}|))
(define-fun .def_619 () (Array Int Int) (store .def_10 .def_48 0))
(define-fun .def_620 () Bool (= |.x{2154}| .def_619))
(define-fun .def_622 () Bool (and .def_620 .def_621))
(define-fun .def_623 () Bool (or .def_68 .def_622))
(define-fun .def_616 () Bool (= |.x{2167}| |.x{2175}|))
(define-fun .def_617 () Bool (or |.x{2183}| .def_616))
(define-fun .def_94 () Bool (= .def_68 |.x{2183}|))
(define-fun .def_618 () Bool (and .def_94 .def_617))
(define-fun .def_624 () Bool (and .def_618 .def_623))
(define-fun .def_625 () Bool (and .def_70 .def_624))
(define-fun .def_52 () Int (! |.x{1319}| :next |.x{2175}|))
(define-fun .def_90 () Bool (= .def_52 |.x{2175}|))
(define-fun .def_610 () Bool (and .def_90 .def_249))
(define-fun .def_92 () Bool (= .def_48 |.x{2173}|))
(define-fun .def_611 () Bool (and .def_92 .def_610))
(define-fun .def_36 () Int (! |.x{1280}| :next |.x{2167}|))
(define-fun .def_96 () Bool (= .def_36 |.x{2167}|))
(define-fun .def_612 () Bool (and .def_96 .def_611))
(define-fun .def_30 () Int (! |.x{1308}| :next |.x{2164}|))
(define-fun .def_98 () Bool (= .def_30 |.x{2164}|))
(define-fun .def_613 () Bool (and .def_98 .def_612))
(define-fun .def_100 () Bool (= .def_10 |.x{2154}|))
(define-fun .def_614 () Bool (and .def_100 .def_613))
(define-fun .def_615 () Bool (and |.x{2183}| .def_614))
(define-fun .def_626 () Bool (or .def_615 .def_625))
(define-fun .def_247 () Bool (not |.loc{10}|))
(define-fun .def_608 () Bool (and |.loc{11}| .def_247))
(define-fun .def_609 () Bool (and .def_247 .def_608))
(define-fun .def_627 () Bool (and .def_609 .def_626))
(define-fun .def_628 () Bool (and .def_72 .def_627))
(define-fun .def_32 () Int (! |.x{1278}| :next |.x{2165}|))
(define-fun .def_401 () Bool (= .def_32 0))
(define-fun .def_605 () Bool (or .def_68 .def_401))
(define-fun .def_597 () Bool (and |.loc{10}| .def_90))
(define-fun .def_598 () Bool (and .def_92 .def_597))
(define-fun .def_599 () Bool (and .def_94 .def_598))
(define-fun .def_600 () Bool (and .def_96 .def_599))
(define-fun .def_601 () Bool (and .def_98 .def_600))
(define-fun .def_602 () Bool (and .def_100 .def_601))
(define-fun .def_104 () Bool (not |.loc{11}|))
(define-fun .def_603 () Bool (and .def_104 .def_602))
(define-fun .def_604 () Bool (and .def_232 .def_603))
(define-fun .def_606 () Bool (and .def_604 .def_605))
(define-fun .def_607 () Bool (and .def_70 .def_606))
(define-fun .def_629 () Bool (or .def_607 .def_628))
(define-fun .def_62 () Int (! |.x{1293}| :next |.x{2180}|))
(define-fun .def_84 () Bool (= .def_62 |.x{2180}|))
(define-fun .def_82 () Bool (not |.loc{9}|))
(define-fun .def_595 () Bool (and .def_82 .def_84))
(define-fun .def_64 () Int (! |.x{1294}| :next |.x{2181}|))
(define-fun .def_86 () Bool (= .def_64 |.x{2181}|))
(define-fun .def_596 () Bool (and .def_86 .def_595))
(define-fun .def_630 () Bool (and .def_596 .def_629))
(define-fun .def_139 () Bool (= .def_32 |.x{2165}|))
(define-fun .def_631 () Bool (and .def_139 .def_630))
(define-fun .def_46 () Int (! |.x{1285}| :next |.x{2172}|))
(define-fun .def_155 () Bool (= .def_46 |.x{2172}|))
(define-fun .def_632 () Bool (and .def_155 .def_631))
(define-fun .def_586 () Bool (<= |.x{2181}| |.x{2172}|))
(define-fun .def_587 () Int (ite .def_586 1 0))
(define-fun .def_588 () Bool (= |.x{2180}| .def_587))
(define-fun .def_585 () Bool (= |.x{2165}| |.x{2180}|))
(define-fun .def_589 () Bool (and .def_585 .def_588))
(define-fun .def_38 () Int (! |.x{1281}| :next |.x{2168}|))
(define-fun .def_581 () Int (* 4 .def_38))
(define-fun .def_582 () Int (+ .def_30 .def_581))
(define-fun .def_119 () (Array Int Int) (select .def_14 .def_48))
(define-fun .def_583 () Int (select .def_119 .def_582))
(define-fun .def_584 () Bool (= |.x{2181}| .def_583))
(define-fun .def_590 () Bool (and .def_584 .def_589))
(define-fun .def_56 () Int (! |.x{1290}| :next |.x{2177}|))
(define-fun .def_577 () Int (* 4 .def_56))
(define-fun .def_578 () Int (+ .def_30 .def_577))
(define-fun .def_579 () Int (select .def_119 .def_578))
(define-fun .def_580 () Bool (= |.x{2172}| .def_579))
(define-fun .def_591 () Bool (and .def_580 .def_590))
(define-fun .def_425 () Bool (<= 100000 .def_56))
(define-fun .def_576 () Bool (not .def_425))
(define-fun .def_592 () Bool (and .def_576 .def_591))
(define-fun .def_593 () Bool (or .def_68 .def_592))
(define-fun .def_566 () Bool (and |.loc{9}| .def_247))
(define-fun .def_567 () Bool (and .def_249 .def_566))
(define-fun .def_568 () Bool (and .def_90 .def_567))
(define-fun .def_569 () Bool (and .def_92 .def_568))
(define-fun .def_570 () Bool (and .def_94 .def_569))
(define-fun .def_571 () Bool (and .def_96 .def_570))
(define-fun .def_572 () Bool (and .def_98 .def_571))
(define-fun .def_573 () Bool (and .def_100 .def_572))
(define-fun .def_574 () Bool (and .def_104 .def_573))
(define-fun .def_575 () Bool (and .def_232 .def_574))
(define-fun .def_594 () Bool (and .def_575 .def_593))
(define-fun .def_633 () Bool (or .def_594 .def_632))
(define-fun .def_80 () Bool (= .def_56 |.x{2177}|))
(define-fun .def_634 () Bool (and .def_80 .def_633))
(define-fun .def_42 () Int (! |.x{1283}| :next |.x{2170}|))
(define-fun .def_149 () Bool (= .def_42 |.x{2170}|))
(define-fun .def_635 () Bool (and .def_149 .def_634))
(define-fun .def_636 () Bool (and .def_76 .def_635))
(define-fun .def_509 () Int (* (- 1) |.x{2177}|))
(define-fun .def_562 () Int (+ .def_56 .def_509))
(define-fun .def_563 () Bool (= .def_562 (- 1)))
(define-fun .def_564 () Bool (or |.x{2183}| .def_563))
(define-fun .def_499 () Bool (and .def_82 .def_247))
(define-fun .def_550 () Bool (and .def_249 .def_499))
(define-fun .def_551 () Bool (and .def_84 .def_550))
(define-fun .def_552 () Bool (and .def_90 .def_551))
(define-fun .def_553 () Bool (and .def_92 .def_552))
(define-fun .def_554 () Bool (and .def_94 .def_553))
(define-fun .def_555 () Bool (and .def_96 .def_554))
(define-fun .def_556 () Bool (and .def_98 .def_555))
(define-fun .def_557 () Bool (and .def_100 .def_556))
(define-fun .def_558 () Bool (and .def_104 .def_557))
(define-fun .def_559 () Bool (and .def_232 .def_558))
(define-fun .def_560 () Bool (and .def_137 .def_559))
(define-fun .def_561 () Bool (and .def_139 .def_560))
(define-fun .def_565 () Bool (and .def_561 .def_564))
(define-fun .def_637 () Bool (or .def_565 .def_636))
(define-fun .def_153 () Bool (not .def_74))
(define-fun .def_638 () Bool (and .def_153 .def_637))
(define-fun .def_288 () Bool (and |.loc{9}| |.loc{10}|))
(define-fun .def_289 () Bool (and .def_80 .def_288))
(define-fun .def_524 () Bool (and .def_84 .def_289))
(define-fun .def_525 () Bool (and .def_86 .def_524))
(define-fun .def_526 () Bool (and .def_90 .def_525))
(define-fun .def_527 () Bool (and .def_92 .def_526))
(define-fun .def_528 () Bool (and .def_94 .def_527))
(define-fun .def_529 () Bool (and .def_96 .def_528))
(define-fun .def_530 () Bool (and .def_98 .def_529))
(define-fun .def_531 () Bool (and .def_100 .def_530))
(define-fun .def_532 () Bool (and .def_104 .def_531))
(define-fun .def_542 () Bool (and .def_68 .def_532))
(define-fun .def_543 () Bool (and .def_137 .def_542))
(define-fun .def_544 () Bool (and .def_139 .def_543))
(define-fun .def_545 () Bool (and .def_70 .def_544))
(define-fun .def_546 () Bool (and .def_72 .def_545))
(define-fun .def_547 () Bool (and .def_149 .def_546))
(define-fun .def_548 () Bool (and .def_74 .def_547))
(define-fun .def_549 () Bool (and .def_155 .def_548))
(define-fun .def_639 () Bool (or .def_549 .def_638))
(define-fun .def_512 () Bool (<= 100000 .def_38))
(define-fun .def_535 () Bool (or .def_68 .def_512))
(define-fun .def_533 () Bool (and .def_137 .def_532))
(define-fun .def_534 () Bool (and .def_139 .def_533))
(define-fun .def_536 () Bool (and .def_534 .def_535))
(define-fun .def_537 () Bool (and .def_70 .def_536))
(define-fun .def_538 () Bool (and .def_72 .def_537))
(define-fun .def_539 () Bool (and .def_149 .def_538))
(define-fun .def_540 () Bool (and .def_74 .def_539))
(define-fun .def_541 () Bool (and .def_155 .def_540))
(define-fun .def_640 () Bool (or .def_541 .def_639))
(define-fun .def_513 () Bool (not .def_512))
(define-fun .def_510 () Int (+ .def_38 .def_509))
(define-fun .def_511 () Bool (= .def_510 (- 1)))
(define-fun .def_514 () Bool (and .def_511 .def_513))
(define-fun .def_515 () Bool (or .def_68 .def_514))
(define-fun .def_500 () Bool (and .def_84 .def_499))
(define-fun .def_501 () Bool (and .def_86 .def_500))
(define-fun .def_502 () Bool (and .def_90 .def_501))
(define-fun .def_503 () Bool (and .def_92 .def_502))
(define-fun .def_504 () Bool (and .def_94 .def_503))
(define-fun .def_505 () Bool (and .def_96 .def_504))
(define-fun .def_506 () Bool (and .def_98 .def_505))
(define-fun .def_507 () Bool (and .def_100 .def_506))
(define-fun .def_508 () Bool (and .def_104 .def_507))
(define-fun .def_516 () Bool (and .def_508 .def_515))
(define-fun .def_517 () Bool (and .def_137 .def_516))
(define-fun .def_518 () Bool (and .def_139 .def_517))
(define-fun .def_519 () Bool (and .def_70 .def_518))
(define-fun .def_520 () Bool (and .def_72 .def_519))
(define-fun .def_521 () Bool (and .def_149 .def_520))
(define-fun .def_522 () Bool (and .def_74 .def_521))
(define-fun .def_523 () Bool (and .def_155 .def_522))
(define-fun .def_641 () Bool (or .def_523 .def_640))
(define-fun .def_642 () Bool (and |.loc{12}| .def_641))
(define-fun .def_143 () Bool (= .def_38 |.x{2168}|))
(define-fun .def_643 () Bool (and .def_143 .def_642))
(define-fun .def_44 () Int (! |.x{1284}| :next |.x{2171}|))
(define-fun .def_151 () Bool (= .def_44 |.x{2171}|))
(define-fun .def_644 () Bool (and .def_151 .def_643))
(define-fun .def_488 () Int (* (- 1) |.x{2168}|))
(define-fun .def_489 () Int (+ .def_38 .def_488))
(define-fun .def_490 () Bool (= .def_489 (- 1)))
(define-fun .def_491 () Bool (or .def_68 .def_490))
(define-fun .def_477 () Bool (and |.loc{11}| .def_289))
(define-fun .def_478 () Bool (and .def_84 .def_477))
(define-fun .def_479 () Bool (and .def_86 .def_478))
(define-fun .def_480 () Bool (and .def_90 .def_479))
(define-fun .def_481 () Bool (and .def_92 .def_480))
(define-fun .def_482 () Bool (and .def_94 .def_481))
(define-fun .def_483 () Bool (and .def_96 .def_482))
(define-fun .def_484 () Bool (and .def_98 .def_483))
(define-fun .def_485 () Bool (and .def_100 .def_484))
(define-fun .def_102 () Bool (not |.loc{12}|))
(define-fun .def_486 () Bool (and .def_102 .def_485))
(define-fun .def_487 () Bool (and .def_232 .def_486))
(define-fun .def_492 () Bool (and .def_487 .def_491))
(define-fun .def_493 () Bool (and .def_137 .def_492))
(define-fun .def_494 () Bool (and .def_139 .def_493))
(define-fun .def_495 () Bool (and .def_70 .def_494))
(define-fun .def_496 () Bool (and .def_149 .def_495))
(define-fun .def_497 () Bool (and .def_153 .def_496))
(define-fun .def_498 () Bool (and .def_155 .def_497))
(define-fun .def_645 () Bool (or .def_498 .def_644))
(define-fun .def_467 () Bool (= |.x{2168}| 0))
(define-fun .def_468 () Bool (or .def_68 .def_467))
(define-fun .def_456 () Bool (and |.loc{11}| .def_288))
(define-fun .def_457 () Bool (and .def_249 .def_456))
(define-fun .def_458 () Bool (and .def_84 .def_457))
(define-fun .def_459 () Bool (and .def_86 .def_458))
(define-fun .def_460 () Bool (and .def_90 .def_459))
(define-fun .def_461 () Bool (and .def_92 .def_460))
(define-fun .def_462 () Bool (and .def_94 .def_461))
(define-fun .def_463 () Bool (and .def_96 .def_462))
(define-fun .def_464 () Bool (and .def_98 .def_463))
(define-fun .def_465 () Bool (and .def_100 .def_464))
(define-fun .def_466 () Bool (and .def_102 .def_465))
(define-fun .def_469 () Bool (and .def_466 .def_468))
(define-fun .def_470 () Bool (and .def_137 .def_469))
(define-fun .def_471 () Bool (and .def_139 .def_470))
(define-fun .def_472 () Bool (and .def_72 .def_471))
(define-fun .def_473 () Bool (and .def_149 .def_472))
(define-fun .def_474 () Bool (and .def_74 .def_473))
(define-fun .def_475 () Bool (and .def_151 .def_474))
(define-fun .def_476 () Bool (and .def_155 .def_475))
(define-fun .def_646 () Bool (or .def_476 .def_645))
(define-fun .def_316 () Bool (and |.loc{9}| .def_80))
(define-fun .def_427 () Bool (and .def_247 .def_316))
(define-fun .def_428 () Bool (and .def_249 .def_427))
(define-fun .def_429 () Bool (and .def_84 .def_428))
(define-fun .def_430 () Bool (and .def_86 .def_429))
(define-fun .def_431 () Bool (and .def_90 .def_430))
(define-fun .def_432 () Bool (and .def_92 .def_431))
(define-fun .def_433 () Bool (and .def_94 .def_432))
(define-fun .def_434 () Bool (and .def_96 .def_433))
(define-fun .def_435 () Bool (and .def_98 .def_434))
(define-fun .def_436 () Bool (and .def_100 .def_435))
(define-fun .def_437 () Bool (and .def_102 .def_436))
(define-fun .def_438 () Bool (and .def_104 .def_437))
(define-fun .def_439 () Bool (and .def_232 .def_438))
(define-fun .def_448 () Bool (and .def_68 .def_439))
(define-fun .def_449 () Bool (and .def_139 .def_448))
(define-fun .def_450 () Bool (and .def_143 .def_449))
(define-fun .def_451 () Bool (and .def_149 .def_450))
(define-fun .def_452 () Bool (and .def_76 .def_451))
(define-fun .def_453 () Bool (and .def_151 .def_452))
(define-fun .def_454 () Bool (and .def_153 .def_453))
(define-fun .def_455 () Bool (and .def_155 .def_454))
(define-fun .def_647 () Bool (or .def_455 .def_646))
(define-fun .def_426 () Bool (or .def_68 .def_425))
(define-fun .def_440 () Bool (and .def_426 .def_439))
(define-fun .def_441 () Bool (and .def_139 .def_440))
(define-fun .def_442 () Bool (and .def_143 .def_441))
(define-fun .def_443 () Bool (and .def_149 .def_442))
(define-fun .def_444 () Bool (and .def_76 .def_443))
(define-fun .def_445 () Bool (and .def_151 .def_444))
(define-fun .def_446 () Bool (and .def_153 .def_445))
(define-fun .def_447 () Bool (and .def_155 .def_446))
(define-fun .def_648 () Bool (or .def_447 .def_647))
(define-fun .def_402 () Bool (not .def_401))
(define-fun .def_403 () Bool (or .def_68 .def_402))
(define-fun .def_379 () Bool (and .def_80 .def_82))
(define-fun .def_404 () Bool (and .def_379 .def_403))
(define-fun .def_405 () Bool (and .def_247 .def_404))
(define-fun .def_406 () Bool (and .def_84 .def_405))
(define-fun .def_407 () Bool (and .def_86 .def_406))
(define-fun .def_408 () Bool (and .def_90 .def_407))
(define-fun .def_409 () Bool (and .def_92 .def_408))
(define-fun .def_410 () Bool (and .def_94 .def_409))
(define-fun .def_411 () Bool (and .def_96 .def_410))
(define-fun .def_412 () Bool (and .def_98 .def_411))
(define-fun .def_413 () Bool (and .def_100 .def_412))
(define-fun .def_414 () Bool (and .def_102 .def_413))
(define-fun .def_415 () Bool (and .def_104 .def_414))
(define-fun .def_416 () Bool (and .def_232 .def_415))
(define-fun .def_417 () Bool (and .def_139 .def_416))
(define-fun .def_418 () Bool (and .def_143 .def_417))
(define-fun .def_419 () Bool (and .def_70 .def_418))
(define-fun .def_420 () Bool (and .def_149 .def_419))
(define-fun .def_421 () Bool (and .def_76 .def_420))
(define-fun .def_422 () Bool (and .def_151 .def_421))
(define-fun .def_423 () Bool (and .def_153 .def_422))
(define-fun .def_424 () Bool (and .def_155 .def_423))
(define-fun .def_649 () Bool (or .def_424 .def_648))
(define-fun .def_380 () Bool (and .def_247 .def_379))
(define-fun .def_381 () Bool (and .def_249 .def_380))
(define-fun .def_382 () Bool (and .def_84 .def_381))
(define-fun .def_383 () Bool (and .def_86 .def_382))
(define-fun .def_384 () Bool (and .def_90 .def_383))
(define-fun .def_385 () Bool (and .def_92 .def_384))
(define-fun .def_386 () Bool (and .def_94 .def_385))
(define-fun .def_387 () Bool (and .def_96 .def_386))
(define-fun .def_388 () Bool (and .def_98 .def_387))
(define-fun .def_389 () Bool (and .def_100 .def_388))
(define-fun .def_390 () Bool (and .def_102 .def_389))
(define-fun .def_391 () Bool (and .def_104 .def_390))
(define-fun .def_392 () Bool (and .def_68 .def_391))
(define-fun .def_393 () Bool (and .def_139 .def_392))
(define-fun .def_394 () Bool (and .def_143 .def_393))
(define-fun .def_395 () Bool (and .def_72 .def_394))
(define-fun .def_396 () Bool (and .def_149 .def_395))
(define-fun .def_397 () Bool (and .def_76 .def_396))
(define-fun .def_398 () Bool (and .def_151 .def_397))
(define-fun .def_399 () Bool (and .def_153 .def_398))
(define-fun .def_400 () Bool (and .def_155 .def_399))
(define-fun .def_650 () Bool (or .def_400 .def_649))
(define-fun .def_159 () Bool (and |.loc{10}| .def_80))
(define-fun .def_349 () Bool (and |.loc{11}| .def_159))
(define-fun .def_350 () Bool (and .def_82 .def_349))
(define-fun .def_351 () Bool (and .def_84 .def_350))
(define-fun .def_352 () Bool (and .def_86 .def_351))
(define-fun .def_353 () Bool (and .def_90 .def_352))
(define-fun .def_354 () Bool (and .def_92 .def_353))
(define-fun .def_355 () Bool (and .def_94 .def_354))
(define-fun .def_356 () Bool (and .def_96 .def_355))
(define-fun .def_357 () Bool (and .def_98 .def_356))
(define-fun .def_358 () Bool (and .def_100 .def_357))
(define-fun .def_359 () Bool (and .def_102 .def_358))
(define-fun .def_360 () Bool (and .def_232 .def_359))
(define-fun .def_370 () Bool (and .def_68 .def_360))
(define-fun .def_371 () Bool (and .def_137 .def_370))
(define-fun .def_372 () Bool (and .def_139 .def_371))
(define-fun .def_373 () Bool (and .def_143 .def_372))
(define-fun .def_374 () Bool (and .def_70 .def_373))
(define-fun .def_375 () Bool (and .def_149 .def_374))
(define-fun .def_376 () Bool (and .def_74 .def_375))
(define-fun .def_377 () Bool (and .def_151 .def_376))
(define-fun .def_378 () Bool (and .def_155 .def_377))
(define-fun .def_651 () Bool (or .def_378 .def_650))
(define-fun .def_50 () Int (! |.x{1287}| :next |.x{2174}|))
(define-fun .def_221 () Bool (= .def_50 0))
(define-fun .def_348 () Bool (or .def_68 .def_221))
(define-fun .def_361 () Bool (and .def_348 .def_360))
(define-fun .def_362 () Bool (and .def_137 .def_361))
(define-fun .def_363 () Bool (and .def_139 .def_362))
(define-fun .def_364 () Bool (and .def_143 .def_363))
(define-fun .def_365 () Bool (and .def_70 .def_364))
(define-fun .def_366 () Bool (and .def_149 .def_365))
(define-fun .def_367 () Bool (and .def_74 .def_366))
(define-fun .def_368 () Bool (and .def_151 .def_367))
(define-fun .def_369 () Bool (and .def_155 .def_368))
(define-fun .def_652 () Bool (or .def_369 .def_651))
(define-fun .def_317 () Bool (and |.loc{11}| .def_316))
(define-fun .def_318 () Bool (and .def_247 .def_317))
(define-fun .def_319 () Bool (and .def_84 .def_318))
(define-fun .def_320 () Bool (and .def_86 .def_319))
(define-fun .def_321 () Bool (and .def_90 .def_320))
(define-fun .def_322 () Bool (and .def_92 .def_321))
(define-fun .def_323 () Bool (and .def_94 .def_322))
(define-fun .def_324 () Bool (and .def_96 .def_323))
(define-fun .def_325 () Bool (and .def_98 .def_324))
(define-fun .def_326 () Bool (and .def_100 .def_325))
(define-fun .def_327 () Bool (and .def_102 .def_326))
(define-fun .def_338 () Bool (and .def_68 .def_327))
(define-fun .def_339 () Bool (and .def_137 .def_338))
(define-fun .def_340 () Bool (and .def_139 .def_339))
(define-fun .def_341 () Bool (and .def_143 .def_340))
(define-fun .def_342 () Bool (and .def_70 .def_341))
(define-fun .def_343 () Bool (and .def_149 .def_342))
(define-fun .def_344 () Bool (and .def_72 .def_343))
(define-fun .def_345 () Bool (and .def_151 .def_344))
(define-fun .def_346 () Bool (and .def_155 .def_345))
(define-fun .def_347 () Bool (and .def_153 .def_346))
(define-fun .def_653 () Bool (or .def_347 .def_652))
(define-fun .def_34 () Int (! |.x{1279}| :next |.x{2166}|))
(define-fun .def_112 () Bool (<= 100000 .def_34))
(define-fun .def_315 () Bool (or .def_68 .def_112))
(define-fun .def_328 () Bool (and .def_315 .def_327))
(define-fun .def_329 () Bool (and .def_137 .def_328))
(define-fun .def_330 () Bool (and .def_139 .def_329))
(define-fun .def_331 () Bool (and .def_143 .def_330))
(define-fun .def_332 () Bool (and .def_70 .def_331))
(define-fun .def_333 () Bool (and .def_72 .def_332))
(define-fun .def_334 () Bool (and .def_149 .def_333))
(define-fun .def_335 () Bool (and .def_151 .def_334))
(define-fun .def_336 () Bool (and .def_153 .def_335))
(define-fun .def_337 () Bool (and .def_155 .def_336))
(define-fun .def_654 () Bool (or .def_337 .def_653))
(define-fun .def_141 () Bool (= .def_34 |.x{2166}|))
(define-fun .def_655 () Bool (and .def_141 .def_654))
(define-fun .def_302 () Int (* (- 1) |.x{2166}|))
(define-fun .def_303 () Int (+ .def_34 .def_302))
(define-fun .def_304 () Bool (= .def_303 (- 1)))
(define-fun .def_305 () Bool (or .def_68 .def_304))
(define-fun .def_290 () Bool (and .def_249 .def_289))
(define-fun .def_291 () Bool (and .def_84 .def_290))
(define-fun .def_292 () Bool (and .def_86 .def_291))
(define-fun .def_293 () Bool (and .def_90 .def_292))
(define-fun .def_294 () Bool (and .def_92 .def_293))
(define-fun .def_295 () Bool (and .def_94 .def_294))
(define-fun .def_296 () Bool (and .def_96 .def_295))
(define-fun .def_297 () Bool (and .def_98 .def_296))
(define-fun .def_298 () Bool (and .def_100 .def_297))
(define-fun .def_299 () Bool (and .def_102 .def_298))
(define-fun .def_300 () Bool (and .def_104 .def_299))
(define-fun .def_306 () Bool (and .def_300 .def_305))
(define-fun .def_307 () Bool (and .def_137 .def_306))
(define-fun .def_308 () Bool (and .def_139 .def_307))
(define-fun .def_309 () Bool (and .def_143 .def_308))
(define-fun .def_310 () Bool (and .def_72 .def_309))
(define-fun .def_311 () Bool (and .def_149 .def_310))
(define-fun .def_312 () Bool (and .def_151 .def_311))
(define-fun .def_313 () Bool (and .def_153 .def_312))
(define-fun .def_314 () Bool (and .def_155 .def_313))
(define-fun .def_656 () Bool (or .def_314 .def_655))
(define-fun .def_659 () Bool (and .def_656 .def_658))
(define-fun .def_66 () Int (! |.x{1295}| :next |.x{2182}|))
(define-fun .def_88 () Bool (= .def_66 |.x{2182}|))
(define-fun .def_660 () Bool (and .def_88 .def_659))
(define-fun .def_131 () Bool (= .def_18 |.x{2158}|))
(define-fun .def_661 () Bool (and .def_131 .def_660))
(define-fun .def_133 () Bool (= .def_22 |.x{2160}|))
(define-fun .def_662 () Bool (and .def_133 .def_661))
(define-fun .def_135 () Bool (= .def_26 |.x{2162}|))
(define-fun .def_663 () Bool (and .def_135 .def_662))
(define-fun .def_40 () Int (! |.x{1282}| :next |.x{2169}|))
(define-fun .def_145 () Bool (= .def_40 |.x{2169}|))
(define-fun .def_664 () Bool (and .def_145 .def_663))
(define-fun .def_157 () Bool (= .def_50 |.x{2174}|))
(define-fun .def_665 () Bool (and .def_157 .def_664))
(define-fun .def_280 () Bool (= |.x{2162}| 0))
(define-fun .def_279 () Bool (= |.x{2158}| 0))
(define-fun .def_281 () Bool (and .def_279 .def_280))
(define-fun .def_277 () (Array Int Int) (store .def_10 0 0))
(define-fun .def_278 () Bool (= |.x{123}| .def_277))
(define-fun .def_282 () Bool (and .def_278 .def_281))
(define-fun .def_283 () Bool (or .def_68 .def_282))
(define-fun .def_271 () Bool (<= |.x{2153}| |.x{2173}|))
(define-fun .def_272 () Bool (not .def_271))
(define-fun .def_266 () (Array Int Int) (store .def_22 |.x{2173}| 400000))
(define-fun .def_267 () Bool (= |.x{2160}| .def_266))
(define-fun .def_262 () Int (select |.x{123}| |.x{2173}|))
(define-fun .def_263 () Bool (= .def_262 0))
(define-fun .def_179 () Bool (= |.x{2174}| 1))
(define-fun .def_264 () Bool (and .def_179 .def_263))
(define-fun .def_268 () Bool (and .def_264 .def_267))
(define-fun .def_260 () Bool (= |.x{2173}| 0))
(define-fun .def_261 () Bool (not .def_260))
(define-fun .def_269 () Bool (and .def_261 .def_268))
(define-fun .def_258 () (Array Int Int) (store |.x{123}| |.x{2173}| 1))
(define-fun .def_259 () Bool (= |.x{2154}| .def_258))
(define-fun .def_270 () Bool (and .def_259 .def_269))
(define-fun .def_273 () Bool (and .def_270 .def_272))
(define-fun .def_256 () Bool (= |.x{2164}| 0))
(define-fun .def_274 () Bool (and .def_256 .def_273))
(define-fun .def_275 () Bool (or |.x{2183}| .def_274))
(define-fun .def_246 () Bool (and |.loc{9}| |.loc{11}|))
(define-fun .def_248 () Bool (and .def_246 .def_247))
(define-fun .def_250 () Bool (and .def_248 .def_249))
(define-fun .def_251 () Bool (and .def_84 .def_250))
(define-fun .def_252 () Bool (and .def_94 .def_251))
(define-fun .def_253 () Bool (and .def_96 .def_252))
(define-fun .def_254 () Bool (and .def_102 .def_253))
(define-fun .def_255 () Bool (and .def_232 .def_254))
(define-fun .def_276 () Bool (and .def_255 .def_275))
(define-fun .def_284 () Bool (and .def_276 .def_283))
(define-fun .def_285 () Bool (and .def_137 .def_284))
(define-fun .def_286 () Bool (and .def_139 .def_285))
(define-fun .def_287 () Bool (and .def_74 .def_286))
(define-fun .def_666 () Bool (or .def_287 .def_665))
(define-fun .def_223 () Bool (= |.x{2166}| 1))
(define-fun .def_222 () Bool (not .def_221))
(define-fun .def_224 () Bool (and .def_222 .def_223))
(define-fun .def_220 () Bool (= |.x{2174}| 0))
(define-fun .def_225 () Bool (and .def_220 .def_224))
(define-fun .def_226 () Bool (or .def_68 .def_225))
(define-fun .def_205 () Bool (and |.loc{9}| .def_78))
(define-fun .def_206 () Bool (and |.loc{10}| .def_205))
(define-fun .def_207 () Bool (and .def_80 .def_206))
(define-fun .def_209 () Bool (and .def_207 .def_208))
(define-fun .def_211 () Bool (and .def_209 .def_210))
(define-fun .def_212 () Bool (and .def_84 .def_211))
(define-fun .def_213 () Bool (and .def_86 .def_212))
(define-fun .def_214 () Bool (and .def_88 .def_213))
(define-fun .def_215 () Bool (and .def_90 .def_214))
(define-fun .def_216 () Bool (and .def_92 .def_215))
(define-fun .def_217 () Bool (and .def_94 .def_216))
(define-fun .def_218 () Bool (and .def_96 .def_217))
(define-fun .def_227 () Bool (and .def_218 .def_226))
(define-fun .def_228 () Bool (and .def_98 .def_227))
(define-fun .def_229 () Bool (and .def_100 .def_228))
(define-fun .def_230 () Bool (and .def_102 .def_229))
(define-fun .def_231 () Bool (and .def_104 .def_230))
(define-fun .def_233 () Bool (and .def_231 .def_232))
(define-fun .def_234 () Bool (and .def_131 .def_233))
(define-fun .def_235 () Bool (and .def_133 .def_234))
(define-fun .def_236 () Bool (and .def_135 .def_235))
(define-fun .def_237 () Bool (and .def_137 .def_236))
(define-fun .def_238 () Bool (and .def_139 .def_237))
(define-fun .def_239 () Bool (and .def_143 .def_238))
(define-fun .def_240 () Bool (and .def_145 .def_239))
(define-fun .def_241 () Bool (and .def_70 .def_240))
(define-fun .def_242 () Bool (and .def_149 .def_241))
(define-fun .def_243 () Bool (and .def_74 .def_242))
(define-fun .def_244 () Bool (and .def_151 .def_243))
(define-fun .def_245 () Bool (and .def_155 .def_244))
(define-fun .def_667 () Bool (or .def_245 .def_666))
(define-fun .def_129 () Bool (= .def_14 |.x{2156}|))
(define-fun .def_668 () Bool (and .def_129 .def_667))
(define-fun .def_171 () Int (* 4 |.x{2166}|))
(define-fun .def_172 () Int (+ |.x{2164}| .def_171))
(define-fun .def_182 () Int (+ .def_172 (- 4)))
(define-fun .def_173 () (Array Int Int) (select .def_14 |.x{2173}|))
(define-fun .def_183 () Int (select .def_173 .def_182))
(define-fun .def_184 () (Array Int Int) (store .def_173 .def_172 .def_183))
(define-fun .def_185 () (Array Int Int) (store .def_184 .def_182 |.x{2169}|))
(define-fun .def_186 () (Array Int (Array Int Int)) (store .def_14 |.x{2173}| .def_185))
(define-fun .def_187 () Bool (= |.x{2156}| .def_186))
(define-fun .def_108 () Bool (<= |.x{1146}| |.x{1145}|))
(define-fun .def_176 () Bool (not .def_108))
(define-fun .def_174 () Int (select .def_173 .def_172))
(define-fun .def_175 () Bool (= |.x{2169}| .def_174))
(define-fun .def_177 () Bool (and .def_175 .def_176))
(define-fun .def_180 () Bool (and .def_177 .def_179))
(define-fun .def_188 () Bool (and .def_180 .def_187))
(define-fun .def_189 () Bool (or |.x{2183}| .def_188))
(define-fun .def_160 () Bool (and .def_82 .def_159))
(define-fun .def_161 () Bool (and .def_84 .def_160))
(define-fun .def_162 () Bool (and .def_86 .def_161))
(define-fun .def_163 () Bool (and .def_90 .def_162))
(define-fun .def_164 () Bool (and .def_92 .def_163))
(define-fun .def_165 () Bool (and .def_94 .def_164))
(define-fun .def_166 () Bool (and .def_96 .def_165))
(define-fun .def_167 () Bool (and .def_98 .def_166))
(define-fun .def_168 () Bool (and .def_100 .def_167))
(define-fun .def_169 () Bool (and .def_102 .def_168))
(define-fun .def_170 () Bool (and .def_104 .def_169))
(define-fun .def_190 () Bool (and .def_170 .def_189))
(define-fun .def_116 () Int (* 4 .def_34))
(define-fun .def_117 () Int (+ .def_30 .def_116))
(define-fun .def_123 () Int (select .def_119 .def_117))
(define-fun .def_124 () Bool (= |.x{1145}| .def_123))
(define-fun .def_120 () Int (+ .def_117 (- 4)))
(define-fun .def_121 () Int (select .def_119 .def_120))
(define-fun .def_122 () Bool (= |.x{1146}| .def_121))
(define-fun .def_125 () Bool (and .def_122 .def_124))
(define-fun .def_113 () Bool (not .def_112))
(define-fun .def_126 () Bool (and .def_113 .def_125))
(define-fun .def_127 () Bool (or .def_68 .def_126))
(define-fun .def_191 () Bool (and .def_127 .def_190))
(define-fun .def_192 () Bool (and .def_131 .def_191))
(define-fun .def_193 () Bool (and .def_133 .def_192))
(define-fun .def_194 () Bool (and .def_135 .def_193))
(define-fun .def_195 () Bool (and .def_137 .def_194))
(define-fun .def_196 () Bool (and .def_139 .def_195))
(define-fun .def_197 () Bool (and .def_141 .def_196))
(define-fun .def_198 () Bool (and .def_143 .def_197))
(define-fun .def_199 () Bool (and .def_70 .def_198))
(define-fun .def_200 () Bool (and .def_72 .def_199))
(define-fun .def_201 () Bool (and .def_149 .def_200))
(define-fun .def_202 () Bool (and .def_151 .def_201))
(define-fun .def_203 () Bool (and .def_153 .def_202))
(define-fun .def_204 () Bool (and .def_155 .def_203))
(define-fun .def_669 () Bool (or .def_204 .def_668))
(define-fun .def_109 () Bool (or |.x{2183}| .def_108))
(define-fun .def_79 () Bool (and |.loc{10}| .def_78))
(define-fun .def_81 () Bool (and .def_79 .def_80))
(define-fun .def_83 () Bool (and .def_81 .def_82))
(define-fun .def_85 () Bool (and .def_83 .def_84))
(define-fun .def_87 () Bool (and .def_85 .def_86))
(define-fun .def_89 () Bool (and .def_87 .def_88))
(define-fun .def_91 () Bool (and .def_89 .def_90))
(define-fun .def_93 () Bool (and .def_91 .def_92))
(define-fun .def_95 () Bool (and .def_93 .def_94))
(define-fun .def_97 () Bool (and .def_95 .def_96))
(define-fun .def_99 () Bool (and .def_97 .def_98))
(define-fun .def_101 () Bool (and .def_99 .def_100))
(define-fun .def_103 () Bool (and .def_101 .def_102))
(define-fun .def_105 () Bool (and .def_103 .def_104))
(define-fun .def_110 () Bool (and .def_105 .def_109))
(define-fun .def_128 () Bool (and .def_110 .def_127))
(define-fun .def_130 () Bool (and .def_128 .def_129))
(define-fun .def_132 () Bool (and .def_130 .def_131))
(define-fun .def_134 () Bool (and .def_132 .def_133))
(define-fun .def_136 () Bool (and .def_134 .def_135))
(define-fun .def_138 () Bool (and .def_136 .def_137))
(define-fun .def_140 () Bool (and .def_138 .def_139))
(define-fun .def_142 () Bool (and .def_140 .def_141))
(define-fun .def_144 () Bool (and .def_142 .def_143))
(define-fun .def_146 () Bool (and .def_144 .def_145))
(define-fun .def_147 () Bool (and .def_70 .def_146))
(define-fun .def_148 () Bool (and .def_72 .def_147))
(define-fun .def_150 () Bool (and .def_148 .def_149))
(define-fun .def_152 () Bool (and .def_150 .def_151))
(define-fun .def_154 () Bool (and .def_152 .def_153))
(define-fun .def_156 () Bool (and .def_154 .def_155))
(define-fun .def_158 () Bool (and .def_156 .def_157))
(define-fun .def_670 () Bool (or .def_158 .def_669))
(define-fun .def_682 () Bool (! (and .def_670 .def_681) :trans true))
(define-fun .def_698 () Bool (and .def_76 .def_695))
(define-fun .def_699 () Bool (and .def_68 .def_698))
(define-fun .def_700 () Bool (! (not .def_699) :invar-property 0))
(assert true)
